p cnf 20 20
-7 -6 9 0
2 -7 20 0
-7 17 -1 0
20 -17 7 0
14 -2 3 0
-6 19 1 0
-10 12 -15 0
-6 16 7 0
-8 6 -12 0
-1 9 -20 0
18 8 1 0
17 14 7 0
19 -14 15 0
-16 20 11 0
-13 -9 -1 0
-9 -19 -6 0
2 12 15 0
15 13 -7 0
-2 14 17 0
19 15 12 0
